NAME : a280
COMMENT : Tour length 3248
TYPE : TOUR
DIMENSION : 280
TOUR_SECTION
1
280
2
242
243
244
245
240
239
238
231
246
247
250
251
230
229
228
227
226
225
224
223
222
219
218
217
220
221
216
213
212
207
210
211
214
215
205
204
203
202
200
144
143
142
147
146
145
199
198
197
194
195
196
201
193
192
191
190
189
188
187
185
184
183
182
181
176
177
151
152
156
153
155
154
129
128
127
126
125
30
31
32
33
34
35
36
37
38
39
40
41
42
43
60
61
118
117
115
114
113
87
84
85
65
64
66
67
70
71
72
73
74
75
76
77
78
79
80
81
82
83
88
112
111
110
108
104
105
106
107
173
174
161
162
163
164
165
166
167
168
169
101
100
99
98
93
94
95
96
97
92
91
90
89
109
103
102
170
171
172
175
160
159
158
157
119
120
121
122
123
124
29
28
27
26
22
25
23
24
14
13
12
11
10
8
7
9
275
276
277
4
279
278
248
249
256
255
252
209
208
253
254
257
258
259
260
261
262
263
264
265
266
138
137
267
268
136
135
134
270
269
133
18
17
16
271
272
273
274
6
5
3
241
237
232
233
234
235
236
206
141
140
139
148
149
150
178
179
180
186
116
86
63
62
59
44
45
56
57
58
68
69
55
54
53
52
51
50
49
48
47
46
130
21
20
19
132
131
15
1
-1
EOF